10
1 0 10
2 0 4
2 1 4
3 0 6
3 1 6
3 2 9
4 0 4
4 1 6
4 2 10
4 3 8
5 0 6
5 1 10
5 2 7
5 3 7
5 4 8
6 0 4
6 1 8
6 2 9
6 3 1
6 4 6
6 5 3
7 0 9
7 1 8
7 2 4
7 3 2
7 4 3
7 5 1
7 6 6
8 0 10
8 1 4
8 2 1
8 3 9
8 4 2
8 5 5
8 6 10
8 7 3
9 0 6
9 1 4
9 2 1
9 3 6
9 4 4
9 5 9
9 6 5
9 7 2
9 8 8
